"Input units (0=umol/m3, 1=ug/m3) ; sample input file"												
1												
												
"Problem type (0=forward, 1=reverse); Phase state (0=solid+liquid, 1=metastable)"												
1	0											
												
NH4-SO4-NO3	system	case										
Na	SO4	NH3	NO3	Cl	Ca	K	Mg	Org	k_org	rho_org	RH	TEMP
0.54	1.088	0.334	0.027	0.713	0.01	0.006	0.004	1.508	0.15	1	0.83	291.89
0.628	1.096	0.337	0.036	0.851	0.011	0.007	0.004	1.506	0.15	1	0.83	291.87
0.696	1.102	0.339	0.042	0.96	0.011	0.007	0.004	1.499	0.15	1	0.83	291.84
0.751	1.109	0.341	0.047	1.047	0.011	0.007	0.004	1.49	0.15	1	0.83	291.81
0.802	1.119	0.343	0.051	1.129	0.011	0.007	0.004	1.483	0.15	1	0.83	291.78
0.855	1.132	0.345	0.054	1.212	0.011	0.007	0.004	1.477	0.15	1	0.83	291.75
0.895	1.144	0.347	0.057	1.275	0.011	0.007	0.004	1.473	0.15	1	0.83	291.72
0.929	1.157	0.348	0.061	1.328	0.011	0.007	0.004	1.468	0.15	1	0.83	291.7
0.97	1.174	0.351	0.064	1.388	0.011	0.007	0.004	1.466	0.15	1	0.83	291.68
1.01	1.197	0.356	0.07	1.448	0.011	0.007	0.004	1.469	0.15	1	0.82	291.68
1.051	1.221	0.363	0.076	1.506	0.011	0.007	0.004	1.473	0.15	1	0.82	291.69
1.079	1.241	0.369	0.084	1.544	0.011	0.007	0.004	1.478	0.15	1	0.82	291.7
1.108	1.26	0.376	0.093	1.583	0.011	0.007	0.004	1.482	0.15	1	0.82	291.71
1.142	1.279	0.383	0.104	1.632	0.011	0.007	0.004	1.483	0.15	1	0.82	291.71
1.175	1.299	0.388	0.113	1.677	0.011	0.007	0.004	1.484	0.15	1	0.82	291.71
1.202	1.317	0.395	0.125	1.713	0.011	0.007	0.004	1.486	0.15	1	0.82	291.71
1.229	1.335	0.402	0.14	1.747	0.011	0.007	0.004	1.49	0.15	1	0.82	291.69
